Name:		mgval_0.40_8B
Optimal value:	-1
#Vehicles:	4
Capacity:	150
Depot Node:	1
#Nodes:		30
#Edges:		27
#Arcs:		64
#Required N:	23
#Required E:	16
#Required A:	38

ReN.	DEMAND	S. COST
N2	6	6
N4	23	23
N6	10	10
N7	18	18
N8	10	10
N9	20	20
N10	5	5
N11	3	3
N12	6	6
N13	12	12
N15	4	4
N16	19	19
N17	8	8
N18	3	3
N20	3	3
N21	17	17
N23	14	14
N24	3	3
N25	4	4
N26	6	6
N28	10	10
N29	13	13
N30	5	5

ReE.	FROM N.	TO N.	T. COST	DEMAND	S. COST
E12	8	9	7	18	18
E13	22	29	4	7	7
E14	18	19	2	6	6
E15	8	14	7	12	12
E16	15	18	3	7	7
E17	16	17	9	13	13
E18	26	30	3	4	4
E19	10	19	10	12	12
E20	15	19	7	11	11
E21	13	14	5	8	8
E22	14	17	4	8	8
E23	14	15	9	10	10
E24	1	2	4	9	9
E25	20	24	2	5	5
E26	22	23	10	12	12
E27	10	15	5	7	7

EDGE	FROM N.	TO N.	T. COST
NrE1	12	13	3
NrE2	6	11	7
NrE3	21	29	8
NrE4	7	12	8
NrE5	13	17	7
NrE6	29	30	6
NrE7	4	5	5
NrE8	23	26	7
NrE9	4	7	1
NrE10	28	29	7
NrE11	16	21	7

ReA.	FROM N.	TO N.	T. COST	DEMAND	S. COST
A27	12	16	6	4	4
A28	12	11	5	4	4
A29	27	20	5	4	4
A30	1	8	7	5	5
A31	21	20	7	5	5
A32	20	21	7	4	4
A33	20	11	10	13	13
A34	27	24	5	9	9
A35	15	8	10	16	16
A36	5	1	3	4	4
A37	8	5	8	6	6
A38	18	17	5	5	5
A39	10	3	6	6	6
A40	23	30	3	2	2
A41	2	9	5	4	4
A42	13	8	6	5	5
A43	1	5	3	3	3
A44	28	24	2	3	3
A45	6	7	3	3	3
A46	22	17	5	3	3
A47	16	20	3	2	2
A48	29	25	3	3	3
A49	21	22	5	3	3
A50	9	15	3	4	4
A51	28	27	10	11	11
A52	11	16	5	6	6
A53	8	1	7	5	5
A54	20	27	5	4	4
A55	16	13	8	5	5
A56	18	26	9	6	6
A57	25	22	2	6	6
A58	5	8	8	5	5
A59	28	21	5	4	4
A60	13	16	8	5	5
A61	24	28	2	3	3
A62	3	10	6	6	6
A63	22	21	5	4	4
A64	9	10	3	5	5

ARC	FROM N.	TO N.	T. COST
NrA1	10	9	3
NrA2	25	30	1
NrA3	15	9	3
NrA4	17	22	5
NrA5	16	11	5
NrA6	17	18	5
NrA7	23	18	3
NrA8	21	28	5
NrA9	1	9	10
NrA10	25	29	3
NrA11	7	8	8
NrA12	9	2	5
NrA13	20	16	3
NrA14	4	6	3
NrA15	16	12	6
NrA16	21	24	5
NrA17	18	23	3
NrA18	30	25	1
NrA19	2	3	3
NrA20	7	6	3
NrA21	26	18	9
NrA22	8	13	6
NrA23	30	23	3
NrA24	8	7	8
NrA25	11	12	5
NrA26	24	21	5
